Maximize
  13 x0 - 27 x1 - 12 x2 - 17 x3 + 25 x4 - 33 x5 + 16 x6 - 11 x7 + 31 x8
   + 36 x9 + 0 x10 + 2 x11 - 4 x12 - 46 x13 + 35 x14 - 6 x15 - 12 x16
   - 20 x17 - 12 x18 + 27 x19 - 29 x20 + 0 x21 + 20 x22 + 7 x23 + 6 x24
   + 16 x25 + 16 x26 - 34 x27 + 33 x28 + 29 x29 + [ - 36 x0 ^2 + 10 x0 * x1
   - 86 x0 * x3 - 76 x0 * x4 + 42 x0 * x5 - 64 x0 * x6 + 6 x0 * x7
   + 2 x0 * x8 - 68 x0 * x9 + 96 x0 * x10 + 98 x0 * x11 + 32 x0 * x12
   - 20 x0 * x13 - 52 x0 * x14 - 64 x0 * x15 + 4 x0 * x16 + 78 x0 * x18
   - 50 x0 * x19 - 28 x0 * x20 + 94 x0 * x21 - 38 x0 * x22 - 98 x0 * x23
   + 46 x0 * x24 - 14 x0 * x25 - 26 x0 * x26 + 22 x0 * x27 + 72 x0 * x28
   + 52 x0 * x29 - 21 x1 ^2 + 82 x1 * x3 + 88 x1 * x4 - 26 x1 * x5
   - 52 x1 * x6 + 26 x1 * x7 + 78 x1 * x8 - 22 x1 * x9 - 92 x1 * x10
   + 40 x1 * x11 + 50 x1 * x13 + 48 x1 * x14 + 4 x1 * x15 + 30 x1 * x16
   + 56 x1 * x17 + 52 x1 * x18 - 76 x1 * x19 - 66 x1 * x20 - 48 x1 * x22
   + 78 x1 * x23 - 78 x1 * x24 - 28 x1 * x25 + 70 x1 * x26 - 36 x1 * x28
   - 62 x1 * x29 + 36 x2 ^2 + 22 x2 * x3 - 80 x2 * x4 - 16 x2 * x5
   - 2 x2 * x6 + 28 x2 * x7 + 14 x2 * x8 + 10 x2 * x9 - 50 x2 * x10
   - 76 x2 * x11 - 50 x2 * x12 + 88 x2 * x13 - 54 x2 * x15 - 90 x2 * x16
   - 68 x2 * x18 + 58 x2 * x20 + 90 x2 * x21 - 58 x2 * x22 - 58 x2 * x23
   - 80 x2 * x25 - 18 x2 * x26 - 92 x2 * x27 - 26 x2 * x28 + 54 x2 * x29
   - 40 x3 ^2 - 58 x3 * x4 + 48 x3 * x6 + 58 x3 * x7 - 34 x3 * x8
   - 68 x3 * x9 + 90 x3 * x10 + 20 x3 * x11 + 76 x3 * x12 - 52 x3 * x14
   - 22 x3 * x15 - 94 x3 * x16 + 48 x3 * x17 - 36 x3 * x18 + 30 x3 * x19
   + 16 x3 * x20 - 4 x3 * x21 + 16 x3 * x22 + 2 x3 * x23 - 82 x3 * x24
   - 16 x3 * x25 - 74 x3 * x26 - 18 x3 * x27 - 50 x3 * x28 - 14 x3 * x29
   + 38 x4 ^2 - 2 x4 * x6 + 28 x4 * x7 - 38 x4 * x8 + 54 x4 * x9
   - 98 x4 * x10 - 34 x4 * x11 - 32 x4 * x12 - 82 x4 * x13 - 70 x4 * x14
   - 72 x4 * x16 + 20 x4 * x17 + 84 x4 * x18 - 92 x4 * x19 - 62 x4 * x20
   + 94 x4 * x21 + 78 x4 * x22 + 70 x4 * x23 + 66 x4 * x24 - 24 x4 * x25
   - 12 x4 * x26 + 68 x4 * x27 - 58 x4 * x28 + 54 x4 * x29 + 24 x5 * x6
   + 40 x5 * x9 - 30 x5 * x10 - 68 x5 * x11 + 22 x5 * x12 - 8 x5 * x13
   - 26 x5 * x15 - 40 x5 * x16 - 86 x5 * x17 + 90 x5 * x19 - 12 x5 * x20
   - 24 x5 * x21 - 84 x5 * x22 + 58 x5 * x23 + 88 x5 * x24 + 74 x5 * x26
   + 28 x5 * x27 + 30 x5 * x28 + 80 x5 * x29 - 17 x6 ^2 - 94 x6 * x8
   + 76 x6 * x9 + 82 x6 * x10 - 54 x6 * x11 - 34 x6 * x12 - 26 x6 * x13
   - 30 x6 * x14 - 92 x6 * x15 - 40 x6 * x17 - 90 x6 * x18 - 2 x6 * x20
   + 96 x6 * x21 - 28 x6 * x22 - 90 x6 * x23 + 70 x6 * x24 + 76 x6 * x25
   + 60 x6 * x27 + 86 x6 * x29 - 10 x7 ^2 + 64 x7 * x8 + 54 x7 * x9
   - 68 x7 * x10 - 90 x7 * x11 - 2 x7 * x12 - 74 x7 * x14 + 28 x7 * x15
   - 86 x7 * x16 - 26 x7 * x17 + 38 x7 * x18 + 4 x7 * x19 + 36 x7 * x20
   + 72 x7 * x21 + 38 x7 * x23 + 16 x7 * x25 - 70 x7 * x26 + 66 x7 * x27
   - 2 x7 * x28 + 90 x7 * x29 + 11 x8 ^2 - 18 x8 * x9 + 18 x8 * x10
   - 54 x8 * x11 + 62 x8 * x12 - 70 x8 * x13 - 2 x8 * x14 + 86 x8 * x15
   - 44 x8 * x16 - 82 x8 * x17 + 82 x8 * x19 - 88 x8 * x20 - 12 x8 * x21
   + 24 x8 * x22 + 14 x8 * x23 - 26 x8 * x24 + 42 x8 * x25 - 8 x8 * x26
   - 96 x8 * x27 - 42 x8 * x28 - 96 x8 * x29 + 44 x9 ^2 + 48 x9 * x10
   - 20 x9 * x11 - 40 x9 * x12 + 44 x9 * x13 - 56 x9 * x14 + 46 x9 * x15
   - 18 x9 * x16 + 78 x9 * x19 - 74 x9 * x20 - 76 x9 * x21 + 24 x9 * x22
   - 36 x9 * x23 - 8 x9 * x25 - 86 x9 * x26 - 24 x9 * x28 - 98 x9 * x29
   - 24 x10 ^2 - 62 x10 * x12 - 74 x10 * x13 - 98 x10 * x14 + 22 x10 * x15
   + 24 x10 * x16 + 16 x10 * x17 + 88 x10 * x18 - 88 x10 * x19
   - 54 x10 * x20 + 72 x10 * x21 - 62 x10 * x22 + 54 x10 * x23
   - 56 x10 * x24 + 34 x10 * x26 + 92 x10 * x27 + 82 x10 * x28
   - 4 x10 * x29 - 35 x11 ^2 - 14 x11 * x12 + 52 x11 * x13 - 60 x11 * x14
   + 32 x11 * x16 - 98 x11 * x17 - 42 x11 * x18 - 80 x11 * x19
   + 32 x11 * x20 - 30 x11 * x21 + 12 x11 * x24 + 54 x11 * x25
   + 82 x11 * x26 - 86 x11 * x28 + 8 x11 * x29 - 3 x12 ^2 - 98 x12 * x13
   + 80 x12 * x14 - 20 x12 * x15 + 74 x12 * x16 + 96 x12 * x17
   + 98 x12 * x18 + 34 x12 * x20 + 96 x12 * x21 + 80 x12 * x23
   + 76 x12 * x24 + 12 x12 * x25 + 86 x12 * x26 - 32 x12 * x27
   + 12 x12 * x28 - 26 x12 * x29 + 2 x13 ^2 - 62 x13 * x14 - 2 x13 * x15
   + 32 x13 * x18 - 14 x13 * x19 + 58 x13 * x21 - 78 x13 * x22
   + 98 x13 * x23 + 72 x13 * x24 - 74 x13 * x25 - 28 x13 * x26
   + 4 x13 * x27 - 86 x13 * x28 + 92 x13 * x29 - 4 x14 ^2 - 24 x14 * x15
   + 80 x14 * x17 + 24 x14 * x19 - 32 x14 * x20 - 16 x14 * x21
   - 20 x14 * x22 - 40 x14 * x23 + 90 x14 * x24 + 98 x14 * x26
   + 38 x14 * x28 + 32 x14 * x29 - 34 x15 ^2 - 12 x15 * x16 + 80 x15 * x17
   - 22 x15 * x18 + 60 x15 * x19 - 94 x15 * x20 + 6 x15 * x21
   + 70 x15 * x22 + 38 x15 * x23 + 64 x15 * x24 + 24 x15 * x25
   + 34 x15 * x26 + 16 x15 * x27 + 36 x15 * x28 - 92 x15 * x29 + 20 x16 ^2
   + 78 x16 * x17 - 24 x16 * x18 - 42 x16 * x19 - 70 x16 * x20
   + 24 x16 * x21 - 56 x16 * x22 + 12 x16 * x24 + 60 x16 * x25
   - 60 x16 * x27 + 62 x16 * x28 + 40 x17 ^2 - 80 x17 * x18 + 74 x17 * x19
   - 86 x17 * x20 - 86 x17 * x22 + 52 x17 * x23 + 68 x17 * x24
   - 34 x17 * x25 + 68 x17 * x26 - 82 x17 * x27 - 46 x17 * x29 - 6 x18 ^2
   - 80 x18 * x19 - 90 x18 * x20 - 84 x18 * x22 - 98 x18 * x24
   - 46 x18 * x25 - 84 x18 * x26 + 56 x18 * x27 - 38 x18 * x28 - 30 x19 ^2
   + 64 x19 * x21 + 82 x19 * x23 - 6 x19 * x24 + 74 x19 * x25
   + 14 x19 * x27 - 38 x19 * x29 + 14 x20 ^2 - 26 x20 * x21 - 84 x20 * x22
   + 44 x20 * x23 + 66 x20 * x24 - 32 x20 * x25 - 38 x20 * x26
   - 66 x20 * x27 + 16 x20 * x28 + 12 x20 * x29 + 15 x21 ^2 - 20 x21 * x22
   + 20 x21 * x23 - 18 x21 * x25 + 54 x21 * x26 - 64 x21 * x28
   - 78 x21 * x29 + 11 x22 ^2 + 50 x22 * x23 + 50 x22 * x24 + 40 x22 * x25
   + 86 x22 * x26 - 20 x22 * x27 + 18 x22 * x28 + 21 x23 ^2 - 20 x23 * x24
   - 2 x23 * x25 - 88 x23 * x26 - 90 x23 * x27 + 12 x23 * x28
   + 70 x23 * x29 - 47 x24 ^2 + 74 x24 * x25 - 12 x24 * x26 - 70 x24 * x27
   + 70 x24 * x28 - 32 x24 * x29 + 35 x25 ^2 - 80 x25 * x26 - 70 x25 * x27
   - 38 x25 * x28 + 30 x25 * x29 - 42 x26 * x27 + 88 x26 * x28
   - 72 x26 * x29 + 32 x27 ^2 - 78 x27 * x28 + 70 x27 * x29 + 45 x28 ^2
   + 8 x28 * x29 + 26 x29 ^2 ] / 2 
Subject To
Bounds
 x0 <= 1
 x1 <= 1
 x2 <= 1
 x3 <= 1
 x4 <= 1
 x5 <= 1
 x6 <= 1
 x7 <= 1
 x8 <= 1
 x9 <= 1
 x10 <= 1
 x11 <= 1
 x12 <= 1
 x13 <= 1
 x14 <= 1
 x15 <= 1
 x16 <= 1
 x17 <= 1
 x18 <= 1
 x19 <= 1
 x20 <= 1
 x21 <= 1
 x22 <= 1
 x23 <= 1
 x24 <= 1
 x25 <= 1
 x26 <= 1
 x27 <= 1
 x28 <= 1
 x29 <= 1
End
